Cost: 1969
0-52-53-44-43-42-32-26-23-60-33-34-35-69-41-37-38-36-39-48-51-50-67-49-47-40-68-46-62-54-55-56-0
0-3-59-8-7-9-11-10-58-57-0
0-4-5-70-28-25-27-6-13-66-14-15-16-18-19-20-21-22-17-64-24-29-30-31-1-2-0
Cost: 1975
0-59-8-7-9-11-10-58-61-57-56-0
0-52-53-44-43-42-32-26-22-23-60-33-35-34-69-41-38-36-37-63-40-68-46-54-50-67-49-47-39-48-51-55-0
0-3-4-5-70-28-25-27-6-13-66-14-15-16-18-19-20-21-17-24-29-30-31-1-2-0
Cost: 1969
0-52-53-44-43-42-32-26-23-60-33-34-35-69-41-37-38-36-39-48-51-50-67-49-47-40-68-46-62-54-55-56-0
0-3-59-8-7-9-11-10-58-57-0
0-4-5-70-28-25-27-6-13-66-14-15-16-18-19-20-21-22-17-64-24-29-30-31-1-2-0
Cost: 1969
0-4-5-70-28-25-27-6-13-66-14-15-16-18-19-20-21-17-24-29-30-31-65-1-2-0
0-52-53-44-43-42-32-26-22-23-60-33-34-35-69-41-37-38-36-39-48-51-50-67-49-47-40-68-46-54-55-56-0
0-3-59-8-7-9-11-10-58-61-57-0
Cost: 1969
0-4-5-70-28-25-27-6-13-66-14-15-16-18-19-20-21-22-17-64-24-29-30-31-1-2-0
0-52-53-44-43-42-32-26-23-60-33-34-35-69-41-38-36-37-39-48-51-50-67-49-47-40-68-46-62-54-55-0
0-3-59-8-7-9-11-10-58-57-56-0
Cost: 1975
0-52-53-44-43-42-32-26-23-60-33-34-35-69-41-37-38-36-63-40-68-46-54-50-67-49-47-39-48-51-55-0
0-3-59-8-7-9-11-10-58-57-56-0
0-4-5-70-28-25-27-6-13-66-14-15-16-18-19-20-21-22-17-24-29-30-31-65-1-2-0
Cost: 1969
0-4-5-70-28-25-27-6-13-66-14-15-16-18-19-20-21-22-17-24-29-30-31-65-1-2-0
0-52-53-44-43-42-32-26-23-60-33-34-35-69-41-37-38-36-39-48-51-50-67-49-47-40-68-46-62-54-55-56-0
0-3-59-8-7-9-11-10-58-57-0
Cost: 1969
0-4-5-70-28-25-27-6-13-66-14-15-16-18-19-20-21-22-17-24-29-30-31-65-1-2-0
0-52-53-44-43-42-32-26-23-60-33-34-35-69-41-37-38-36-39-48-51-50-67-49-47-40-68-46-62-54-55-56-0
0-3-59-8-7-9-11-10-58-57-0
Cost: 1969
0-4-5-70-28-25-27-6-13-66-14-15-16-18-19-20-21-22-17-24-29-30-31-65-1-2-0
0-52-53-44-43-42-32-26-23-60-33-34-35-69-41-37-38-36-39-48-51-50-67-49-47-40-68-46-62-54-55-56-0
0-3-59-8-7-9-11-10-58-57-0
Cost: 1969
0-56-52-53-44-43-42-32-26-23-60-33-34-35-69-41-38-36-37-39-48-51-50-67-49-47-40-68-46-62-54-55-0
0-4-5-70-28-25-27-6-13-66-14-15-16-18-19-20-21-22-17-24-29-30-31-65-1-2-0
0-3-59-8-7-9-11-10-58-57-0
Cost: 1969
0-52-53-44-43-42-32-26-22-23-60-33-34-35-69-41-38-36-37-39-48-51-50-67-49-47-40-68-46-62-54-55-0
0-59-8-7-9-11-10-58-57-56-0
0-3-4-5-70-28-25-27-6-13-66-14-15-16-18-19-20-21-17-24-29-30-31-65-1-2-0
Cost: 1969
0-4-5-70-28-25-27-6-13-66-14-15-16-18-19-20-21-22-17-24-29-30-31-65-1-2-0
0-56-52-53-44-43-42-32-26-23-60-33-34-35-69-41-37-38-36-39-48-51-50-67-49-47-40-68-46-62-54-55-0
0-3-59-8-7-9-11-10-58-57-0
Cost: 1969
0-52-53-44-43-42-32-26-23-60-33-34-35-69-41-38-36-37-48-51-50-67-49-47-39-40-68-46-62-54-55-56-0
0-4-5-70-28-25-27-6-13-66-14-15-16-18-19-20-21-22-17-24-29-30-31-65-1-2-0
0-3-59-8-7-9-11-10-58-57-0
Cost: 1969
0-52-53-44-43-42-32-26-22-23-60-33-34-35-69-41-37-38-36-39-48-51-50-67-49-47-40-68-46-54-55-56-0
0-3-59-8-7-9-11-10-58-57-0
0-4-5-70-28-25-27-6-13-66-14-15-16-18-19-20-21-17-64-24-29-30-31-65-1-2-0
Cost: 1969
0-52-53-44-43-42-32-26-23-60-33-34-35-69-41-38-36-37-48-51-50-67-49-47-39-40-68-46-62-54-55-56-0
0-4-5-70-28-25-27-6-13-66-14-15-16-18-19-20-21-22-17-24-29-30-31-65-1-2-0
0-3-59-8-7-9-11-10-58-57-0
Cost: 1969
0-52-53-44-43-42-32-26-22-23-60-33-34-35-69-41-38-36-37-39-48-51-50-67-49-47-40-68-46-62-54-55-0
0-59-8-7-9-11-10-58-57-56-0
0-3-4-5-70-28-25-27-6-13-66-14-15-16-18-19-20-21-17-24-29-30-31-65-1-2-0
Cost: 1969
0-56-52-53-44-43-42-32-26-23-60-33-34-35-69-41-37-38-36-39-48-51-50-67-49-47-40-68-46-62-54-55-0
0-3-59-8-7-9-11-10-58-57-0
0-4-5-70-28-25-27-6-13-66-14-15-16-18-19-20-21-22-17-64-24-29-30-31-1-2-0
Cost: 1969
0-52-53-44-43-42-32-26-23-60-33-34-35-69-41-38-36-37-48-51-50-67-49-47-39-40-68-46-62-54-55-56-0
0-4-5-70-28-25-27-6-13-66-14-15-16-18-19-20-21-22-17-24-29-30-31-65-1-2-0
0-3-59-8-7-9-11-10-58-57-0
Cost: 1975
0-3-59-8-7-9-11-10-58-57-56-0
0-52-53-44-43-42-32-26-23-60-33-34-35-69-41-37-38-36-63-40-68-46-54-51-50-67-49-47-39-48-55-0
0-4-5-70-28-25-27-6-13-66-14-15-16-18-19-20-21-22-17-24-29-30-31-65-1-2-0
Cost: 1969
0-52-53-44-43-42-32-26-23-60-33-34-35-69-41-38-36-37-48-51-50-67-49-47-39-40-68-46-62-54-55-56-0
0-4-5-70-28-25-27-6-13-66-14-15-16-18-19-20-21-22-17-24-29-30-31-65-1-2-0
0-3-59-8-7-9-11-10-58-57-0
Cost: 1969
0-4-5-70-28-25-27-6-13-66-14-15-16-18-19-20-21-22-17-24-29-30-31-65-1-2-0
0-3-59-8-7-9-11-10-58-57-0
0-52-53-44-43-42-32-26-23-60-33-35-34-69-41-38-36-37-48-51-50-67-49-47-39-40-68-46-62-54-55-56-0
Cost: 1969
0-4-5-70-28-25-27-6-13-66-14-15-16-18-19-20-21-22-17-24-29-30-31-65-1-2-0
0-3-59-8-7-9-11-10-58-57-0
0-52-53-44-43-42-32-26-23-60-33-35-34-69-41-38-36-37-48-51-50-67-49-47-39-40-68-46-62-54-55-56-0
Cost: 1969
0-4-5-70-28-25-27-6-13-66-14-15-16-18-19-20-21-22-17-24-29-30-31-65-1-2-0
0-56-52-53-44-43-42-32-26-23-60-33-34-35-69-41-37-38-36-48-51-50-67-49-47-39-40-68-46-62-54-55-0
0-3-59-8-7-9-11-10-58-57-0
Cost: 1969
0-4-5-70-28-25-27-6-13-66-14-15-16-18-19-20-21-22-17-24-29-30-31-65-1-2-0
0-56-52-53-44-43-42-32-26-23-60-33-34-35-69-41-37-38-36-48-51-50-67-49-47-39-40-68-46-62-54-55-0
0-3-59-8-7-9-11-10-58-57-0
Cost: 1969
0-4-5-70-28-25-27-6-13-66-14-15-16-18-19-20-21-22-17-24-29-30-31-65-1-2-0
0-52-53-44-43-42-32-26-23-60-33-34-35-69-41-38-36-37-39-48-51-50-67-49-47-40-68-46-62-54-55-56-0
0-3-59-8-7-9-11-10-58-57-0
Cost: 1969
0-4-5-70-28-25-27-6-13-66-14-15-16-18-19-20-21-22-17-24-29-30-31-65-1-2-0
0-56-52-53-44-43-42-32-26-23-60-33-34-35-69-41-37-38-36-48-51-50-67-49-47-39-40-68-46-62-54-55-0
0-3-59-8-7-9-11-10-58-57-0
Cost: 1969
0-52-53-44-43-42-32-26-23-60-33-34-35-69-41-38-36-37-48-51-50-67-49-47-39-40-68-46-62-54-55-56-0
0-4-5-70-28-25-27-6-13-66-14-15-16-18-19-20-21-22-17-24-29-30-31-65-1-2-0
0-3-59-8-7-9-11-10-58-57-0
Cost: 1969
0-52-53-44-43-42-32-26-22-23-60-33-35-34-69-41-38-36-37-48-51-50-67-49-47-39-40-68-46-62-54-55-0
0-3-4-5-70-28-25-27-6-13-66-14-15-16-18-19-20-21-17-64-24-29-30-31-1-2-0
0-59-8-7-9-11-10-58-57-56-0
Cost: 1969
0-52-53-44-43-42-32-26-22-23-60-33-35-34-69-41-38-36-37-48-51-50-67-49-47-39-40-68-46-62-54-55-0
0-3-4-5-70-28-25-27-6-13-66-14-15-16-18-19-20-21-17-64-24-29-30-31-1-2-0
0-59-8-7-9-11-10-58-57-56-0
Cost: 1969
0-3-59-8-7-9-11-10-58-61-57-56-0
0-52-53-44-43-42-32-26-22-23-60-33-34-35-69-41-38-36-37-48-51-50-67-49-47-39-40-68-46-54-55-0
0-4-5-70-28-25-27-6-13-66-14-15-16-18-19-20-21-17-24-29-30-31-65-1-2-0
Cost: 1975
0-3-59-8-7-9-11-10-58-57-0
0-4-5-70-28-25-27-6-13-66-14-15-16-18-19-20-21-17-64-24-29-30-31-65-1-2-0
0-52-53-44-43-42-32-26-22-23-60-33-35-34-69-41-37-38-36-40-68-46-54-51-50-67-49-47-39-48-55-56-0
Cost: 1969
0-3-59-8-7-9-11-10-58-61-56-0
0-4-5-70-28-25-27-6-13-66-14-15-16-18-19-20-21-17-64-24-29-30-31-1-2-0
0-57-52-53-44-43-42-32-26-22-23-60-33-34-35-69-41-37-38-36-48-51-50-67-49-47-39-40-68-46-54-55-0
Cost: 1969
0-4-5-70-28-25-27-6-13-66-14-15-16-18-19-20-21-17-64-24-29-30-31-65-1-2-0
0-3-59-8-7-9-11-10-58-57-0
0-56-52-53-44-43-42-32-26-22-23-60-33-34-35-69-41-37-38-36-39-48-51-50-67-49-47-40-68-46-54-55-0
Cost: 1969
0-4-5-70-28-25-27-6-13-66-14-15-16-18-19-20-21-22-17-64-24-29-30-31-1-2-0
0-3-59-8-7-9-11-10-58-56-0
0-57-52-53-44-43-42-32-26-23-60-33-34-35-69-41-37-38-36-39-48-51-50-67-49-47-40-68-46-62-54-55-0
